NAME: tsp40_15
COMMENT: 40-tsp problem (Padberg/Rinaldi)
TYPE: TSP
DIMENSION: 40
EDGE_WEIGHT_TYPE : EUC_2D
NODE_COORD_SECTION
1 18 3
2 1 33
3 15 30
4 15 31
5 2 26
6 12 10
7 28 25
8 16 21
9 36 27
10 9 15
11 27 6
12 28 33
13 26 10
14 25 36
15 34 1
16 1 35
17 2 32
18 19 37
19 35 8
20 26 19
21 24 18
22 7 22
23 37 2
24 23 29
25 6 4
26 23 32
27 29 10
28 23 16
29 1 8
30 6 2
31 38 23
32 35 13
33 10 4
34 14 4
35 13 11
36 8 39
37 35 34
38 3 20
39 38 34
40 31 19
